30
1 0 4
2 0 6
2 1 10
3 0 1
3 1 2
3 2 12
4 0 5
4 1 7
4 2 7
4 3 7
5 0 11
5 1 10
5 2 12
5 3 7
5 4 10
6 0 2
6 1 7
6 2 10
6 3 10
6 4 1
6 5 3
7 0 5
7 1 8
7 2 5
7 3 2
7 4 2
7 5 5
7 6 4
8 0 3
8 1 1
8 2 4
8 3 6
8 4 5
8 5 11
8 6 6
8 7 4
9 0 8
9 1 8
9 2 2
9 3 10
9 4 9
9 5 6
9 6 3
9 7 2
9 8 5
10 0 7
10 1 2
10 2 5
10 3 1
10 4 8
10 5 2
10 6 12
10 7 11
10 8 2
10 9 3
11 0 1
11 1 3
11 2 3
11 3 1
11 4 9
11 5 11
11 6 5
11 7 10
11 8 5
11 9 4
11 10 12
12 0 4
12 1 7
12 2 6
12 3 3
12 4 1
12 5 9
12 6 8
12 7 9
12 8 1
12 9 1
12 10 1
12 11 5
13 0 5
13 1 4
13 2 5
13 3 10
13 4 3
13 5 2
13 6 6
13 7 11
13 8 8
13 9 10
13 10 12
13 11 9
13 12 12
14 0 1
14 1 7
14 2 6
14 3 5
14 4 4
14 5 8
14 6 9
14 7 2
14 8 3
14 9 8
14 10 1
14 11 3
14 12 3
14 13 10
15 0 1
15 1 2
15 2 6
15 3 1
15 4 8
15 5 10
15 6 7
15 7 3
15 8 2
15 9 7
15 10 12
15 11 5
15 12 12
15 13 11
15 14 11
16 0 5
16 1 7
16 2 12
16 3 5
16 4 6
16 5 10
16 6 1
16 7 9
16 8 6
16 9 8
16 10 8
16 11 8
16 12 3
16 13 9
16 14 9
16 15 2
17 0 4
17 1 9
17 2 8
17 3 8
17 4 4
17 5 12
17 6 12
17 7 11
17 8 8
17 9 8
17 10 2
17 11 7
17 12 11
17 13 4
17 14 2
17 15 3
17 16 9
18 0 3
18 1 2
18 2 11
18 3 11
18 4 2
18 5 1
18 6 10
18 7 12
18 8 12
18 9 7
18 10 10
18 11 4
18 12 9
18 13 3
18 14 1
18 15 3
18 16 2
18 17 12
19 0 10
19 1 11
19 2 9
19 3 8
19 4 6
19 5 6
19 6 5
19 7 1
19 8 9
19 9 7
19 10 6
19 11 7
19 12 6
19 13 3
19 14 9
19 15 5
19 16 2
19 17 8
19 18 9
20 0 2
20 1 7
20 2 8
20 3 5
20 4 5
20 5 3
20 6 9
20 7 10
20 8 5
20 9 5
20 10 5
20 11 4
20 12 12
20 13 8
20 14 11
20 15 12
20 16 7
20 17 6
20 18 9
20 19 5
21 0 7
21 1 10
21 2 11
21 3 3
21 4 11
21 5 3
21 6 4
21 7 9
21 8 10
21 9 7
21 10 4
21 11 10
21 12 1
21 13 8
21 14 1
21 15 12
21 16 9
21 17 1
21 18 3
21 19 3
21 20 2
22 0 1
22 1 7
22 2 9
22 3 5
22 4 4
22 5 4
22 6 6
22 7 4
22 8 7
22 9 11
22 10 7
22 11 8
22 12 7
22 13 8
22 14 11
22 15 12
22 16 4
22 17 2
22 18 6
22 19 2
22 20 5
22 21 12
23 0 9
23 1 1
23 2 1
23 3 9
23 4 1
23 5 4
23 6 8
23 7 3
23 8 5
23 9 1
23 10 5
23 11 10
23 12 9
23 13 3
23 14 3
23 15 9
23 16 6
23 17 6
23 18 10
23 19 5
23 20 5
23 21 7
23 22 12
24 0 3
24 1 12
24 2 4
24 3 2
24 4 10
24 5 12
24 6 2
24 7 12
24 8 6
24 9 10
24 10 1
24 11 7
24 12 4
24 13 4
24 14 2
24 15 10
24 16 8
24 17 3
24 18 12
24 19 5
24 20 11
24 21 11
24 22 2
24 23 6
25 0 9
25 1 7
25 2 3
25 3 9
25 4 3
25 5 5
25 6 12
25 7 8
25 8 1
25 9 3
25 10 11
25 11 6
25 12 1
25 13 1
25 14 9
25 15 1
25 16 9
25 17 5
25 18 2
25 19 12
25 20 12
25 21 5
25 22 1
25 23 6
25 24 10
26 0 5
26 1 4
26 2 3
26 3 12
26 4 1
26 5 1
26 6 9
26 7 4
26 8 11
26 9 7
26 10 1
26 11 11
26 12 3
26 13 8
26 14 11
26 15 11
26 16 3
26 17 2
26 18 6
26 19 2
26 20 6
26 21 11
26 22 4
26 23 1
26 24 4
26 25 3
27 0 5
27 1 11
27 2 2
27 3 11
27 4 8
27 5 11
27 6 11
27 7 5
27 8 3
27 9 8
27 10 7
27 11 3
27 12 5
27 13 12
27 14 6
27 15 11
27 16 12
27 17 3
27 18 5
27 19 7
27 20 5
27 21 7
27 22 10
27 23 4
27 24 4
27 25 3
27 26 9
28 0 10
28 1 10
28 2 2
28 3 6
28 4 11
28 5 4
28 6 7
28 7 2
28 8 4
28 9 7
28 10 9
28 11 3
28 12 10
28 13 12
28 14 4
28 15 9
28 16 10
28 17 3
28 18 7
28 19 12
28 20 4
28 21 6
28 22 8
28 23 7
28 24 8
28 25 9
28 26 12
28 27 6
29 0 5
29 1 4
29 2 5
29 3 10
29 4 1
29 5 1
29 6 7
29 7 12
29 8 7
29 9 1
29 10 5
29 11 1
29 12 7
29 13 2
29 14 12
29 15 5
29 16 2
29 17 1
29 18 2
29 19 1
29 20 7
29 21 7
29 22 7
29 23 8
29 24 11
29 25 10
29 26 7
29 27 10
29 28 9
